benchmark/results/graph__15-1000-0.10-02_0/graph__15-1000-0.10-02_0_QuintonOs_Benders_primal_sub.lp
\ This file has been generated by DOcplex
\ ENCODING=ISO-8859-1
\Problem name: Quinton Bounded Benders_primal_sub

Maximize
 obj: tau
Subject To
 c1: tau <= 0.001150747986
 c2: y_a0_proc_0 + y_a0_proc_1 - tau = 0
 c3: y_a0_proc_0 <= 1
 c4: y_a0_proc_1 <= 0
 c5: tau <= 0.000956022945
 c6: y_a1_proc_1 - tau = 0
 c7: y_a1_proc_1 <= 1
 c8: tau <= 0.001736111111
 c9: y_a2_proc_0 + y_a2_proc_1 - tau = 0
 c10: y_a2_proc_0 <= 0
 c11: y_a2_proc_1 <= 1
 c12: tau <= 0.000955109838
 c13: y_a3_proc_1 - tau = 0
 c14: y_a3_proc_1 <= 1
 c15: tau <= 0.001831501832
 c16: y_a4_proc_0 - tau = 0
 c17: y_a4_proc_0 <= 1
 c18: tau <= 0.001059322034
 c19: y_a5_proc_0 + y_a5_proc_1 - tau = 0
 c20: y_a5_proc_0 <= 0
 c21: y_a5_proc_1 <= 1
 c22: tau <= 0.001146788991
 c23: y_a6_proc_0 + y_a6_proc_1 - tau = 0
 c24: y_a6_proc_0 <= 1
 c25: y_a6_proc_1 <= 0
 c26: tau <= 0.000958772771
 c27: y_a7_proc_1 - tau = 0
 c28: y_a7_proc_1 <= 1
 c29: tau <= 0.001011122346
 c30: y_a8_proc_0 - tau = 0
 c31: y_a8_proc_0 <= 1
 c32: tau <= 0.000851063830
 c33: y_a9_proc_0 - tau = 0
 c34: y_a9_proc_0 <= 1
 c35: tau <= 0.001620745543
 c36: y_a10_proc_0 - tau = 0
 c37: y_a10_proc_0 <= 1
 c38: tau <= 0.000944287063
 c39: y_a11_proc_1 - tau = 0
 c40: y_a11_proc_1 <= 1
 c41: tau <= 0.000881057269
 c42: y_a12_proc_0 + y_a12_proc_1 - tau = 0
 c43: y_a12_proc_0 <= 0
 c44: y_a12_proc_1 <= 1
 c45: tau <= 0.001031991744
 c46: y_a13_proc_0 + y_a13_proc_1 - tau = 0
 c47: y_a13_proc_0 <= 0
 c48: y_a13_proc_1 <= 1
 c49: tau <= 0.001101321586
 c50: y_a14_proc_1 - tau = 0
 c51: y_a14_proc_1 <= 1
 c52: u_a0 - u_a1 - 1046 y_a1_proc_1 >= 0
 c53: u_a1 - u_a2 - 715 y_a2_proc_0 - 576 y_a2_proc_1 >= 0
 c54: u_a1 - u_a3 - 1047 y_a3_proc_1 >= 0
 c55: u_a4 - u_a2 - 715 y_a2_proc_0 - 576 y_a2_proc_1 >= -1
 c56: u_a5 - u_a4 - 546 y_a4_proc_0 >= 0
 c57: u_a1 - u_a6 - 872 y_a6_proc_0 - 942 y_a6_proc_1 >= 0
 c58: u_a3 - u_a7 - 1043 y_a7_proc_1 >= 0
 c59: u_a8 - u_a0 - 869 y_a0_proc_0 - 919 y_a0_proc_1 >= -1
 c60: u_a9 - u_a8 - 989 y_a8_proc_0 >= 0
 c61: u_a10 - u_a0 - 869 y_a0_proc_0 - 919 y_a0_proc_1 >= -1
 c62: u_a11 - u_a8 - 989 y_a8_proc_0 >= 0
 c63: u_a2 - u_a12 - 1192 y_a12_proc_0 - 1135 y_a12_proc_1 >= -1
 c64: u_a7 - u_a13 - 921 y_a13_proc_0 - 969 y_a13_proc_1 >= 0
 c65: u_a12 - u_a14 - 908 y_a14_proc_1 >= 0
 c66: u_a4 - u_a13 - 921 y_a13_proc_0 - 969 y_a13_proc_1 >= 0
 c67: u_a14 - u_a5 - 1107 y_a5_proc_0 - 944 y_a5_proc_1 >= -1
 c68: u_a9 - u_a10 - 617 y_a10_proc_0 >= 0
 c69: u_a6 - u_a1 - 1046 y_a1_proc_1 >= -1
 c70: u_a10 - u_a8 - 989 y_a8_proc_0 >= -1
 c71: u_a8 - u_a14 - 908 y_a14_proc_1 >= -1
 c72: u_a6 - u_a7 - 1043 y_a7_proc_1 >= 0
 c73: u_a11 - u_a14 - 908 y_a14_proc_1 >= -1
 c74: u_a13 - u_a11 - 1059 y_a11_proc_1 >= 0
 c75: u_a11 - u_a9 - 1175 y_a9_proc_0 >= 0
 c76: u_a3 - u_a13 - 921 y_a13_proc_0 - 969 y_a13_proc_1 >= 0
 c77: u_a12 - u_a0 - 869 y_a0_proc_0 - 919 y_a0_proc_1 >= 0
 c78: u_a14 - u_a11 - 1059 y_a11_proc_1 >= 0
 c79: u_a4 - u_a11 - 1059 y_a11_proc_1 >= 0
 c80: u_a8 - u_a10 - 617 y_a10_proc_0 >= 0
 c81: u_a14 - u_a12 - 1192 y_a12_proc_0 - 1135 y_a12_proc_1 >= -1
 c82: u_a1 - u_a0 - 919 y_a0_proc_1 >= -1209
 c83: u_a0 - u_a1 - 1046 y_a1_proc_1 >= -1176
 c84: u_a2 - u_a0 - 869 y_a0_proc_0 >= -1209
 c85: u_a2 - u_a0 - 919 y_a0_proc_1 >= -1209
 c86: u_a0 - u_a2 - 715 y_a2_proc_0 >= -1176
 c87: u_a0 - u_a2 - 576 y_a2_proc_1 >= -1176
 c88: u_a3 - u_a0 - 919 y_a0_proc_1 >= -1209
 c89: u_a0 - u_a3 - 1047 y_a3_proc_1 >= -1176
 c90: u_a4 - u_a0 - 869 y_a0_proc_0 >= -1
 c91: u_a0 - u_a4 - 546 y_a4_proc_0 >= 0
 c92: u_a5 - u_a0 - 869 y_a0_proc_0 >= -1193
 c93: u_a5 - u_a0 - 919 y_a0_proc_1 >= -1193
 c94: u_a0 - u_a5 - 1107 y_a5_proc_0 >= -1192
 c95: u_a0 - u_a5 - 944 y_a5_proc_1 >= -1192
 c96: u_a6 - u_a0 - 869 y_a0_proc_0 >= -1
 c97: u_a6 - u_a0 - 919 y_a0_proc_1 >= -2385
 c98: u_a0 - u_a6 - 872 y_a6_proc_0 >= 0
 c99: u_a0 - u_a6 - 942 y_a6_proc_1 >= -2384
 c100: u_a7 - u_a0 - 919 y_a0_proc_1 >= -1209
 c101: u_a0 - u_a7 - 1043 y_a7_proc_1 >= -1176
 c102: u_a8 - u_a0 - 869 y_a0_proc_0 >= -1
 c103: u_a0 - u_a8 - 989 y_a8_proc_0 >= 0
 c104: u_a9 - u_a0 - 869 y_a0_proc_0 >= -1
 c105: u_a0 - u_a9 - 1175 y_a9_proc_0 >= 0
 c106: u_a10 - u_a0 - 869 y_a0_proc_0 >= -1
 c107: u_a0 - u_a10 - 617 y_a10_proc_0 >= 0
 c108: u_a11 - u_a0 - 919 y_a0_proc_1 >= -1209
 c109: u_a0 - u_a11 - 1059 y_a11_proc_1 >= -1176
 c110: u_a12 - u_a0 - 869 y_a0_proc_0 >= -1209
 c111: u_a12 - u_a0 - 919 y_a0_proc_1 >= -1209
 c112: u_a0 - u_a12 - 1192 y_a12_proc_0 >= -1176
 c113: u_a0 - u_a12 - 1135 y_a12_proc_1 >= -1176
 c114: u_a13 - u_a0 - 869 y_a0_proc_0 >= -1209
 c115: u_a13 - u_a0 - 919 y_a0_proc_1 >= -1209
 c116: u_a0 - u_a13 - 921 y_a13_proc_0 >= -1176
 c117: u_a0 - u_a13 - 969 y_a13_proc_1 >= -1176
 c118: u_a14 - u_a0 - 919 y_a0_proc_1 >= -1176
 c119: u_a0 - u_a14 - 908 y_a14_proc_1 >= -1209
 c120: u_a2 - u_a1 - 1046 y_a1_proc_1 >= -1
 c121: u_a1 - u_a2 - 576 y_a2_proc_1 >= 0
 c122: u_a3 - u_a1 - 1046 y_a1_proc_1 >= -1
 c123: u_a1 - u_a3 - 1047 y_a3_proc_1 >= 0
 c124: u_a5 - u_a1 - 1046 y_a1_proc_1 >= 0
 c125: u_a1 - u_a5 - 944 y_a5_proc_1 >= -1
 c126: u_a6 - u_a1 - 1046 y_a1_proc_1 >= -1209
 c127: u_a1 - u_a6 - 942 y_a6_proc_1 >= -1176
 c128: u_a7 - u_a1 - 1046 y_a1_proc_1 >= -1
 c129: u_a1 - u_a7 - 1043 y_a7_proc_1 >= 0
 c130: u_a11 - u_a1 - 1046 y_a1_proc_1 >= -1
 c131: u_a1 - u_a11 - 1059 y_a11_proc_1 >= 0
 c132: u_a12 - u_a1 - 1046 y_a1_proc_1 >= 0
 c133: u_a1 - u_a12 - 1135 y_a12_proc_1 >= -1
 c134: u_a13 - u_a1 - 1046 y_a1_proc_1 >= -1
 c135: u_a1 - u_a13 - 969 y_a13_proc_1 >= 0
 c136: u_a14 - u_a1 - 1046 y_a1_proc_1 >= 0
 c137: u_a1 - u_a14 - 908 y_a14_proc_1 >= -1
 c138: u_a3 - u_a2 - 576 y_a2_proc_1 >= 0
 c139: u_a2 - u_a3 - 1047 y_a3_proc_1 >= -1
 c140: u_a4 - u_a2 - 715 y_a2_proc_0 >= -1209
 c141: u_a2 - u_a4 - 546 y_a4_proc_0 >= -1176
 c142: u_a5 - u_a2 - 715 y_a2_proc_0 >= -2384
 c143: u_a5 - u_a2 - 576 y_a2_proc_1 >= 0
 c144: u_a2 - u_a5 - 1107 y_a5_proc_0 >= -2385
 c145: u_a2 - u_a5 - 944 y_a5_proc_1 >= -1
 c146: u_a6 - u_a2 - 715 y_a2_proc_0 >= -1176
 c147: u_a6 - u_a2 - 576 y_a2_proc_1 >= -1176
 c148: u_a2 - u_a6 - 872 y_a6_proc_0 >= -1209
 c149: u_a2 - u_a6 - 942 y_a6_proc_1 >= -1209
 c150: u_a7 - u_a2 - 576 y_a2_proc_1 >= 0
 c151: u_a2 - u_a7 - 1043 y_a7_proc_1 >= -1
 c152: u_a8 - u_a2 - 715 y_a2_proc_0 >= -1176
 c153: u_a2 - u_a8 - 989 y_a8_proc_0 >= -1209
 c154: u_a9 - u_a2 - 715 y_a2_proc_0 >= -1209
 c155: u_a2 - u_a9 - 1175 y_a9_proc_0 >= -1176
 c156: u_a10 - u_a2 - 715 y_a2_proc_0 >= -1209
 c157: u_a2 - u_a10 - 617 y_a10_proc_0 >= -1176
 c158: u_a11 - u_a2 - 576 y_a2_proc_1 >= 0
 c159: u_a2 - u_a11 - 1059 y_a11_proc_1 >= -1
 c160: u_a12 - u_a2 - 715 y_a2_proc_0 >= -2384
 c161: u_a12 - u_a2 - 576 y_a2_proc_1 >= 0
 c162: u_a2 - u_a12 - 1192 y_a12_proc_0 >= -2385
 c163: u_a2 - u_a12 - 1135 y_a12_proc_1 >= -1
 c164: u_a13 - u_a2 - 715 y_a2_proc_0 >= -2384
 c165: u_a13 - u_a2 - 576 y_a2_proc_1 >= 0
 c166: u_a2 - u_a13 - 921 y_a13_proc_0 >= -2385
 c167: u_a2 - u_a13 - 969 y_a13_proc_1 >= -1
 c168: u_a14 - u_a2 - 576 y_a2_proc_1 >= 0
 c169: u_a2 - u_a14 - 908 y_a14_proc_1 >= -1
 c170: u_a5 - u_a3 - 1047 y_a3_proc_1 >= 0
 c171: u_a3 - u_a5 - 944 y_a5_proc_1 >= -1
 c172: u_a6 - u_a3 - 1047 y_a3_proc_1 >= -1176
 c173: u_a3 - u_a6 - 942 y_a6_proc_1 >= -1209
 c174: u_a7 - u_a3 - 1047 y_a3_proc_1 >= -1
 c175: u_a3 - u_a7 - 1043 y_a7_proc_1 >= 0
 c176: u_a11 - u_a3 - 1047 y_a3_proc_1 >= -1
 c177: u_a3 - u_a11 - 1059 y_a11_proc_1 >= 0
 c178: u_a12 - u_a3 - 1047 y_a3_proc_1 >= 0
 c179: u_a3 - u_a12 - 1135 y_a12_proc_1 >= -1
 c180: u_a13 - u_a3 - 1047 y_a3_proc_1 >= -1
 c181: u_a3 - u_a13 - 969 y_a13_proc_1 >= 0
 c182: u_a14 - u_a3 - 1047 y_a3_proc_1 >= 0
 c183: u_a3 - u_a14 - 908 y_a14_proc_1 >= -1
 c184: u_a5 - u_a4 - 546 y_a4_proc_0 >= -1192
 c185: u_a4 - u_a5 - 1107 y_a5_proc_0 >= -1193
 c186: u_a6 - u_a4 - 546 y_a4_proc_0 >= 0
 c187: u_a4 - u_a6 - 872 y_a6_proc_0 >= -1
 c188: u_a8 - u_a4 - 546 y_a4_proc_0 >= -1
 c189: u_a4 - u_a8 - 989 y_a8_proc_0 >= 0
 c190: u_a9 - u_a4 - 546 y_a4_proc_0 >= -1
 c191: u_a4 - u_a9 - 1175 y_a9_proc_0 >= 0
 c192: u_a10 - u_a4 - 546 y_a4_proc_0 >= -1
 c193: u_a4 - u_a10 - 617 y_a10_proc_0 >= 0
 c194: u_a12 - u_a4 - 546 y_a4_proc_0 >= -1176
 c195: u_a4 - u_a12 - 1192 y_a12_proc_0 >= -1209
 c196: u_a13 - u_a4 - 546 y_a4_proc_0 >= -1209
 c197: u_a4 - u_a13 - 921 y_a13_proc_0 >= -1176
 c198: u_a6 - u_a5 - 1107 y_a5_proc_0 >= -1209
 c199: u_a6 - u_a5 - 944 y_a5_proc_1 >= -1209
 c200: u_a5 - u_a6 - 872 y_a6_proc_0 >= -1176
 c201: u_a5 - u_a6 - 942 y_a6_proc_1 >= -1176
 c202: u_a7 - u_a5 - 944 y_a5_proc_1 >= -1
 c203: u_a5 - u_a7 - 1043 y_a7_proc_1 >= 0
 c204: u_a8 - u_a5 - 1107 y_a5_proc_0 >= -1209
 c205: u_a5 - u_a8 - 989 y_a8_proc_0 >= -1176
 c206: u_a9 - u_a5 - 1107 y_a5_proc_0 >= -1209
 c207: u_a5 - u_a9 - 1175 y_a9_proc_0 >= -1176
 c208: u_a10 - u_a5 - 1107 y_a5_proc_0 >= -1209
 c209: u_a5 - u_a10 - 617 y_a10_proc_0 >= -1176
 c210: u_a11 - u_a5 - 944 y_a5_proc_1 >= -1
 c211: u_a5 - u_a11 - 1059 y_a11_proc_1 >= 0
 c212: u_a12 - u_a5 - 1107 y_a5_proc_0 >= -2384
 c213: u_a12 - u_a5 - 944 y_a5_proc_1 >= 0
 c214: u_a5 - u_a12 - 1192 y_a12_proc_0 >= -2385
 c215: u_a5 - u_a12 - 1135 y_a12_proc_1 >= -1
 c216: u_a13 - u_a5 - 1107 y_a5_proc_0 >= -2385
 c217: u_a13 - u_a5 - 944 y_a5_proc_1 >= -1
 c218: u_a5 - u_a13 - 921 y_a13_proc_0 >= -2384
 c219: u_a5 - u_a13 - 969 y_a13_proc_1 >= 0
 c220: u_a14 - u_a5 - 944 y_a5_proc_1 >= -1
 c221: u_a5 - u_a14 - 908 y_a14_proc_1 >= 0
 c222: u_a7 - u_a6 - 942 y_a6_proc_1 >= -1209
 c223: u_a6 - u_a7 - 1043 y_a7_proc_1 >= -1176
 c224: u_a8 - u_a6 - 872 y_a6_proc_0 >= -1
 c225: u_a6 - u_a8 - 989 y_a8_proc_0 >= 0
 c226: u_a9 - u_a6 - 872 y_a6_proc_0 >= -1
 c227: u_a6 - u_a9 - 1175 y_a9_proc_0 >= 0
 c228: u_a10 - u_a6 - 872 y_a6_proc_0 >= -1
 c229: u_a6 - u_a10 - 617 y_a10_proc_0 >= 0
 c230: u_a11 - u_a6 - 942 y_a6_proc_1 >= -1209
 c231: u_a6 - u_a11 - 1059 y_a11_proc_1 >= -1176
 c232: u_a12 - u_a6 - 872 y_a6_proc_0 >= -1209
 c233: u_a12 - u_a6 - 942 y_a6_proc_1 >= -1209
 c234: u_a6 - u_a12 - 1192 y_a12_proc_0 >= -1176
 c235: u_a6 - u_a12 - 1135 y_a12_proc_1 >= -1176
 c236: u_a13 - u_a6 - 872 y_a6_proc_0 >= -1209
 c237: u_a13 - u_a6 - 942 y_a6_proc_1 >= -1209
 c238: u_a6 - u_a13 - 921 y_a13_proc_0 >= -1176
 c239: u_a6 - u_a13 - 969 y_a13_proc_1 >= -1176
 c240: u_a14 - u_a6 - 942 y_a6_proc_1 >= -1209
 c241: u_a6 - u_a14 - 908 y_a14_proc_1 >= -1176
 c242: u_a11 - u_a7 - 1043 y_a7_proc_1 >= -1
 c243: u_a7 - u_a11 - 1059 y_a11_proc_1 >= 0
 c244: u_a12 - u_a7 - 1043 y_a7_proc_1 >= 0
 c245: u_a7 - u_a12 - 1135 y_a12_proc_1 >= -1
 c246: u_a13 - u_a7 - 1043 y_a7_proc_1 >= -1
 c247: u_a7 - u_a13 - 969 y_a13_proc_1 >= 0
 c248: u_a14 - u_a7 - 1043 y_a7_proc_1 >= 0
 c249: u_a7 - u_a14 - 908 y_a14_proc_1 >= -1
 c250: u_a9 - u_a8 - 989 y_a8_proc_0 >= 0
 c251: u_a8 - u_a9 - 1175 y_a9_proc_0 >= -1
 c252: u_a10 - u_a8 - 989 y_a8_proc_0 >= -1
 c253: u_a8 - u_a10 - 617 y_a10_proc_0 >= 0
 c254: u_a12 - u_a8 - 989 y_a8_proc_0 >= -1209
 c255: u_a8 - u_a12 - 1192 y_a12_proc_0 >= -1176
 c256: u_a13 - u_a8 - 989 y_a8_proc_0 >= -1209
 c257: u_a8 - u_a13 - 921 y_a13_proc_0 >= -1176
 c258: u_a10 - u_a9 - 1175 y_a9_proc_0 >= -1
 c259: u_a9 - u_a10 - 617 y_a10_proc_0 >= 0
 c260: u_a12 - u_a9 - 1175 y_a9_proc_0 >= -1209
 c261: u_a9 - u_a12 - 1192 y_a12_proc_0 >= -1176
 c262: u_a13 - u_a9 - 1175 y_a9_proc_0 >= -1209
 c263: u_a9 - u_a13 - 921 y_a13_proc_0 >= -1176
 c264: u_a12 - u_a10 - 617 y_a10_proc_0 >= -1209
 c265: u_a10 - u_a12 - 1192 y_a12_proc_0 >= -1176
 c266: u_a13 - u_a10 - 617 y_a10_proc_0 >= -1193
 c267: u_a10 - u_a13 - 921 y_a13_proc_0 >= -1192
 c268: u_a12 - u_a11 - 1059 y_a11_proc_1 >= 0
 c269: u_a11 - u_a12 - 1135 y_a12_proc_1 >= -1
 c270: u_a13 - u_a11 - 1059 y_a11_proc_1 >= 0
 c271: u_a11 - u_a13 - 969 y_a13_proc_1 >= -1
 c272: u_a14 - u_a11 - 1059 y_a11_proc_1 >= 0
 c273: u_a11 - u_a14 - 908 y_a14_proc_1 >= -1
 c274: u_a13 - u_a12 - 1192 y_a12_proc_0 >= -2385
 c275: u_a13 - u_a12 - 1135 y_a12_proc_1 >= -1
 c276: u_a12 - u_a13 - 921 y_a13_proc_0 >= -2384
 c277: u_a12 - u_a13 - 969 y_a13_proc_1 >= 0
 c278: u_a14 - u_a12 - 1135 y_a12_proc_1 >= -1
 c279: u_a12 - u_a14 - 908 y_a14_proc_1 >= 0
 c280: u_a14 - u_a13 - 969 y_a13_proc_1 >= 0
 c281: u_a13 - u_a14 - 908 y_a14_proc_1 >= -1

Bounds
End
